Traveling salesman problem/model.ilp
\ Model _copy
\ LP format - for model browsing. Use MPS format to capture full model detail.
Minimize
 
Subject To
 R2: - C0 + C2 = 0
 R6: C0 + C1 = 1
 R8: C2 + C3 = 1
 R11: C1 + C3 = 1
Bounds
Binaries
 C0 C1 C2 C3
End
