Traveling salesman problem/model.mps
NAME 
ROWS
 N  OBJ
 E  R0      
 E  R1      
 E  R2      
 E  R3      
 E  R4      
 E  R5      
 E  R6      
 E  R7      
 E  R8      
 E  R9      
 E  R10     
 E  R11     
 E  R12     
 E  R13     
 E  R14     
 E  R15     
 E  R16     
 E  R17     
 E  R18     
 E  R19     
 L  R20     
 E  R21     
 E  R22     
 E  R23     
 E  R24     
 E  R25     
 E  R26     
 E  R27     
 E  R28     
 L  R29     
COLUMNS
    MARKER    'MARKER'                 'INTORG'
    C0        R0        1
    C0        R4        -1
    C1        R1        1
    C1        R8        -1
    C2        R2        1
    C2        R12       -1
    C3        R3        1
    C3        R16       -1
    C4        OBJ       1.0244998779892558e+02
    C4        R0        -1
    C4        R4        1
    C4        R21       1
    C4        R22       1
    C5        R5        1
    C5        R9        -1
    C6        R6        1
    C6        R13       -1
    C7        R7        1
    C7        R17       -1
    C8        OBJ       58.9406481131655
    C8        R1        -1
    C8        R8        1
    C8        R21       1
    C8        R24       1
    C9        OBJ       6.5375836514724611e+01
    C9        R5        -1
    C9        R9        1
    C9        R23       1
    C9        R24       1
    C10       R10       1
    C10       R14       -1
    C11       R11       1
    C11       R18       -1
    C12       OBJ       5.2354560450833695e+01
    C12       R2        -1
    C12       R12       1
    C12       R21       1
    C12       R26       1
    C13       OBJ       95.2732911156112
    C13       R6        -1
    C13       R13       1
    C13       R23       1
    C13       R26       1
    C14       OBJ       8.7664131775772461e+01
    C14       R10       -1
    C14       R14       1
    C14       R25       1
    C14       R26       1
    C15       R15       1
    C15       R19       -1
    C16       OBJ       41.7612260356422
    C16       R3        -1
    C16       R16       1
    C16       R21       1
    C16       R28       1
    C17       OBJ       6.5604877867426907e+01
    C17       R7        -1
    C17       R17       1
    C17       R23       1
    C17       R28       1
    C18       OBJ       5.1478150704935004e+01
    C18       R11       -1
    C18       R18       1
    C18       R25       1
    C18       R28       1
    C19       OBJ       3.7483329627982627e+01
    C19       R15       -1
    C19       R19       1
    C19       R27       1
    C19       R28       1
    MARKER    'MARKER'                 'INTEND'
RHS
    RHS1      R20       -1
    RHS1      R21       1
    RHS1      R22       1
    RHS1      R23       1
    RHS1      R24       1
    RHS1      R25       1
    RHS1      R26       1
    RHS1      R27       1
    RHS1      R28       1
    RHS1      R29       -1
BOUNDS
 BV BND1      C0      
 BV BND1      C1      
 BV BND1      C2      
 BV BND1      C3      
 BV BND1      C4      
 BV BND1      C5      
 BV BND1      C6      
 BV BND1      C7      
 BV BND1      C8      
 BV BND1      C9      
 BV BND1      C10     
 BV BND1      C11     
 BV BND1      C12     
 BV BND1      C13     
 BV BND1      C14     
 BV BND1      C15     
 BV BND1      C16     
 BV BND1      C17     
 BV BND1      C18     
 BV BND1      C19     
ENDATA
